n_res = 4;
rc = [ 42, 44, 44, 45 ];
n_tasks = 90;
d = [ 3, 2, 4, 9, 5, 10, 3, 2, 9, 4, 1, 9, 3, 5, 10, 2, 1, 6, 4, 6, 8, 8, 2, 7, 9, 5, 6, 9, 6, 7, 10, 7, 3, 2, 8, 7, 8, 8, 1, 10, 5, 5, 5, 4, 7, 7, 1, 5, 4, 6, 1, 4, 7, 6, 4, 2, 2, 3, 9, 3, 2, 8, 4, 8, 4, 3, 7, 1, 3, 3, 5, 10, 2, 8, 1, 4, 3, 8, 5, 3, 1, 6, 1, 3, 5, 8, 2, 4, 10, 4 ];
rr = [| 5, 1, 10, 10, 0, 10, 0, 4, 0, 8, 5, 2, 9, 1, 2, 6, 9, 10, 4, 6, 0, 6, 0, 10, 8, 0, 0, 0, 0, 2, 6, 1, 5, 7, 4, 0, 0, 10, 4, 9, 3, 0, 0, 10, 3, 0, 1, 0, 8, 0, 10, 0, 1, 8, 7, 9, 10, 2, 0, 3, 2, 0, 10, 5, 0, 0, 4, 4, 5, 7, 3, 0, 7, 8, 0, 7, 6, 3, 3, 9, 3, 0, 6, 8, 0, 8, 3, 5, 0, 0
      | 0, 0, 6, 0, 10, 4, 10, 0, 0, 4, 0, 0, 0, 0, 3, 1, 8, 6, 4, 0, 1, 6, 8, 7, 5, 7, 9, 7, 7, 10, 0, 4, 2, 3, 3, 0, 7, 10, 0, 0, 0, 9, 9, 8, 5, 6, 9, 5, 0, 0, 8, 3, 1, 7, 4, 5, 2, 0, 10, 1, 7, 9, 4, 4, 8, 7, 2, 0, 4, 2, 4, 2, 9, 1, 1, 0, 9, 9, 0, 0, 0, 6, 0, 9, 7, 0, 7, 9, 8, 8
      | 3, 1, 4, 10, 0, 10, 5, 7, 10, 4, 9, 5, 6, 10, 0, 2, 3, 10, 5, 0, 4, 8, 10, 6, 1, 6, 9, 2, 7, 3, 4, 0, 1, 6, 3, 4, 8, 10, 0, 2, 10, 10, 9, 3, 0, 7, 2, 10, 4, 7, 5, 0, 0, 0, 3, 4, 0, 5, 0, 0, 9, 2, 9, 0, 0, 7, 5, 10, 1, 0, 8, 2, 7, 2, 0, 9, 6, 2, 0, 8, 6, 3, 8, 6, 0, 1, 10, 6, 9, 2
      | 10, 1, 7, 2, 1, 0, 6, 0, 5, 2, 5, 7, 10, 0, 7, 6, 0, 8, 3, 2, 1, 1, 0, 4, 7, 7, 7, 0, 4, 0, 9, 6, 0, 0, 3, 0, 10, 6, 9, 1, 1, 0, 1, 5, 10, 3, 0, 1, 2, 2, 0, 10, 2, 6, 10, 2, 2, 0, 1, 6, 9, 9, 5, 2, 3, 2, 3, 6, 0, 8, 4, 4, 10, 5, 0, 1, 0, 0, 3, 10, 4, 5, 6, 8, 6, 5, 10, 10, 3, 0 |];
suc = [ { 6, 14, 28 },
       { 5, 7, 33 },
       { 4 },
       { 11, 17 },
       { 8, 12, 36 },
       { 10, 13, 20 },
       { 9, 51 },
       { 79 },
       { 70 },
       { 22, 25 },
       { 59 },
       { 21 },
       { 38, 52, 64 },
       { 15, 16, 81 },
       { 55 },
       { 30, 56, 83 },
       { 18 },
       { 19, 29, 32 },
       { 20 },
       { 23 },
       { 24, 39, 45 },
       { 82 },
       { 30 },
       { 26, 48, 73 },
       { 76 },
       { 27, 50 },
       { 31, 37, 46 },
       { 61, 73 },
       { 34, 42, 44 },
       { 55 },
       { 58, 61 },
       { 35, 40, 43 },
       { 47, 63 },
       { 48, 60 },
       { 68 },
       { 66 },
       { 49 },
       { 53 },
       { 41 },
       { 60, 62, 65 },
       { 75 },
       { 88 },
       { 88 },
       { 80 },
       { 73 },
       { 57 },
       { 62, 68 },
       { 68, 72, 78 },
       { 66, 67 },
       { 80 },
       { 53, 77 },
       { 54 },
       { 63 },
       { 71 },
       { 57 },
       { 76 },
       { 58 },
       { 90 },
       { 66 },
       { 75, 80 },
       { 79 },
       { 84 },
       { 74, 81 },
       { 89 },
       { 86 },
       { 69 },
       { 86 },
       { 85 },
       { 89 },
       { 72 },
       { 79 },
       { 76, 88 },
       { 74 },
       { 84, 86 },
       { 90 },
       { 77 },
       { 82 },
       { 83 },
       { 81 },
       { 85 },
       { 82 },
       { 87 },
       { 87 },
       { 85 },
       { 90 },
       { 87 },
       { 89 },
       {  },
       {  },
       {  } ];
